% seed = 0

mint = 23;
% maxt = 84;

nActs = 32;
dur = [0,3,2,4,1,3,5,4,2,4,2,2,5,1,2,4,1,2,1,3,6,4,2,3,2,3,5,3,2,2,1,0];

nSkills = 9;
sreq = [| 0,0,0,0,0,0,0,0,0,
	| 0,0,0,1,0,0,0,0,0,
	| 0,0,0,0,1,1,1,0,0,
	| 0,0,1,0,1,0,0,1,0,
	| 0,0,0,0,0,0,0,1,0,
	| 0,0,0,0,2,1,0,0,0,
	| 0,0,0,0,0,0,1,0,0,
	| 0,1,0,0,0,0,0,0,1,
	| 0,0,0,0,1,0,2,0,0,
	| 0,0,0,0,0,0,1,0,0,
	| 0,1,0,0,0,1,0,0,0,
	| 0,0,0,0,0,0,1,0,0,
	| 0,0,0,0,0,0,1,0,0,
	| 0,1,1,0,0,0,1,0,0,
	| 0,0,0,0,1,0,0,0,0,
	| 0,1,0,0,0,0,1,0,0,
	| 0,1,0,0,0,0,0,0,0,
	| 0,0,0,1,1,0,0,1,0,
	| 0,0,2,0,0,0,0,1,0,
	| 0,0,0,0,0,0,0,1,0,
	| 0,0,0,1,0,0,0,2,0,
	| 0,0,0,0,0,0,1,0,0,
	| 0,0,0,0,0,0,0,1,0,
	| 0,1,0,0,0,0,0,1,0,
	| 0,1,0,0,0,1,0,0,0,
	| 0,0,0,0,0,1,1,1,0,
	| 1,0,0,0,0,0,0,0,0,
	| 0,1,0,0,0,0,0,0,0,
	| 0,0,0,1,0,0,0,0,0,
	| 0,0,0,0,0,0,0,2,0,
	| 0,0,0,0,0,0,1,1,0,
	| 0,0,0,0,0,0,0,0,0, |];

% SumOfsreq = 55;

nResources = 10;
mastery = [| false,true,true,false,false,true,false,true,true,
	| false,true,true,false,false,false,false,false,false,
	| false,false,false,false,false,true,true,true,true,
	| false,false,false,false,false,false,true,true,true,
	| false,false,false,true,true,true,true,true,true,
	| false,false,false,true,true,true,false,false,false,
	| false,false,false,false,false,false,true,true,true,
	| true,true,true,false,false,false,false,false,false,
	| false,false,true,false,true,true,false,false,false,
	| false,false,false,false,true,true,false,false,false, |];

nPrecs = 48;
pred = [1,1,1,2,2,2,3,3,3,4,4,4,5,5,5,6,7,7,7,8,9,10,10,11,12,12,13,14,14,14,15,16,17,18,19,20,21,22,23,24,25,26,26,27,28,29,30,31];
succ = [2,3,4,17,6,16,12,5,23,11,13,22,9,7,8,25,27,29,14,10,15,18,21,16,17,18,29,20,22,15,17,19,24,27,26,21,30,24,25,25,31,29,31,28,30,32,32,32];

nUnrels = 290;
unpred = [2,2,2,2,2,2,2,2,2,2,2,2,2,2,2,2,2,2,2,2,3,3,3,3,3,3,3,4,4,4,4,4,4,4,4,4,4,4,4,4,4,4,4,4,5,5,5,5,5,5,5,5,6,6,6,6,6,6,6,6,6,6,6,6,6,6,6,6,6,6,6,6,6,6,6,7,7,7,7,7,7,7,7,7,7,7,8,8,8,8,8,8,8,8,8,8,8,8,8,8,8,8,8,9,9,9,9,9,9,9,9,9,9,9,9,9,9,9,9,9,10,10,10,10,10,10,10,10,10,10,10,10,10,10,10,10,11,11,11,11,11,11,11,11,11,11,11,11,11,11,11,12,12,12,12,12,12,12,12,12,12,12,13,13,13,13,13,13,13,13,13,13,13,13,13,13,13,13,13,14,14,14,14,14,14,14,14,15,15,15,15,15,15,15,15,15,15,15,15,16,16,16,16,16,16,16,16,16,16,16,17,17,17,17,17,17,17,17,17,17,17,18,18,18,18,18,18,18,18,18,18,19,19,19,19,19,19,19,19,19,20,20,20,20,20,20,20,20,20,21,21,21,21,21,21,21,21,21,22,22,22,22,22,22,23,23,23,23,23,23,24,24,24,24,24,25,25,25,25,25,26,26,26,27,27,28,28,29,29,30];
unsucc = [3,4,5,7,8,9,10,11,12,13,14,15,18,20,21,22,23,27,28,30,4,6,11,13,16,19,26,5,6,7,8,9,10,12,14,15,17,18,20,21,23,27,28,30,6,11,12,13,16,19,23,26,7,8,9,10,11,12,13,14,15,16,17,18,19,20,21,22,23,24,26,27,28,29,30,8,9,10,11,12,13,16,18,19,23,26,9,11,12,13,14,15,16,17,19,20,22,23,24,25,26,29,31,10,11,12,13,14,16,18,19,20,21,22,23,26,27,28,29,30,11,12,13,14,15,16,17,19,20,22,23,24,25,26,29,31,12,13,14,15,17,18,20,21,22,23,24,25,27,28,30,13,14,15,16,19,20,21,22,23,26,29,14,15,16,17,18,19,20,21,22,23,24,25,26,27,28,30,31,16,18,19,23,26,27,28,29,16,18,19,20,21,22,23,26,27,28,29,30,17,18,20,21,22,23,24,25,27,28,30,18,19,20,21,22,23,26,27,28,29,30,19,20,21,22,23,24,25,26,29,31,20,21,22,23,24,25,27,28,30,22,23,24,25,26,27,28,29,31,22,23,24,25,26,27,28,29,31,23,26,27,28,29,30,24,26,27,28,29,30,26,27,28,29,30,26,27,28,29,30,27,28,30,29,31,29,31,30,31,31];

USEFUL_RES = [{},
	{5,6},
	{1,3,4,5,6,7,9,10},
	{1,2,3,4,5,6,7,8,9,10},
	{1,3,4,5,7},
	{1,3,5,6,9,10},
	{3,4,5,7},
	{1,2,3,4,5,7,8},
	{3,4,5,6,7,9,10},
	{3,4,5,7},
	{1,2,3,5,6,8,9,10},
	{3,4,5,7},
	{3,4,5,7},
	{1,2,3,4,5,7,8,9},
	{5,6,9,10},
	{1,2,3,4,5,7,8},
	{1,2,8},
	{1,3,4,5,6,7,9,10},
	{1,2,3,4,5,7,8,9},
	{1,3,4,5,7},
	{1,3,4,5,6,7},
	{3,4,5,7},
	{1,3,4,5,7},
	{1,2,3,4,5,7,8},
	{1,2,3,5,6,8,9,10},
	{1,3,4,5,6,7,9,10},
	{8},
	{1,2,8},
	{5,6},
	{1,3,4,5,7},
	{1,3,4,5,7},
	{}];

POTENTIAL_ACT = [{3,4,5,6,8,11,14,16,17,18,19,20,21,23,24,25,26,28,30,31},
	{4,8,11,14,16,17,19,24,25,28},
	{3,4,5,6,7,8,9,10,11,12,13,14,16,18,19,20,21,22,23,24,25,26,30,31},
	{3,4,5,7,8,9,10,12,13,14,16,18,19,20,21,22,23,24,26,30,31},
	{2,3,4,5,6,7,8,9,10,11,12,13,14,15,16,18,19,20,21,22,23,24,25,26,29,30,31},
	{2,3,4,6,9,11,15,18,21,25,26,29},
	{3,4,5,7,8,9,10,12,13,14,16,18,19,20,21,22,23,24,26,30,31},
	{4,8,11,14,16,17,19,24,25,27,28},
	{3,4,6,9,11,14,15,18,19,25,26},
	{3,4,6,9,11,15,18,25,26}];
